p cnf 33 10
-14 25 0 
-2 16 -15 1 3 5 7 8 11 13 19 24 26 0 
-18 27 0 
-19 1 3 5 7 8 11 13 15 24 -20 28 0 
-2 16 -3 1 5 7 8 11 13 15 19 24 28 0 
-2 16 -3 1 5 7 8 11 13 15 19 24 29 0 
-2 16 -3 1 5 7 8 11 13 15 19 24 30 0 
-21 -22 17 31 0 
-23 32 0 
-24 1 3 5 7 8 11 13 15 19 33 0 
